5
5
0 989 627 1057 614 
989 0 786 80 901 
627 786 0 814 1053 
1057 80 814 0 981 
614 901 1053 981 0 
0 237 310 617 724 
237 0 468 749 812 
310 468 0 307 430 
617 749 307 0 176 
724 812 430 176 0 
0 501 706 981 955 
501 0 931 1033 934 
706 931 0 379 459 
981 1033 379 0 156 
955 934 459 156 0 
0 220 462 516 263 
220 0 431 732 424 
462 431 0 744 376 
516 732 744 0 377 
263 424 376 377 0 
0 893 591 730 159 
893 0 792 841 1006 
591 792 0 139 561 
730 841 139 0 693 
159 1006 561 693 0 
